nNurses = 95;
nHours = 39;
minHours = 4;
maxHours = 9;
maxConsec = 9;
maxPresence = 7;
demand = [5, 9, 10, 15, 16, 16, 19, 16, 17, 19, 22, 17, 17, 17, 20, 21, 21, 16, 12, 11, 8, 9, 12, 10, 10, 6, 11, 16, 15, 15, 17, 12, 8, 11, 13, 16, 15, 19, 16];
